proyfinal/src/viki/013/experimentInOfficeAgust.take6.output/9a4b5618-5b48-429f-a5f8-1731c4263434.als.dat
{'cnf.clauses': '118081',
 'cnf.totvars': '69608',
 'conflict literals': '20',
 'conflicts': '12',
 'decisions': '6373',
 'memused.mb': '15.56',
 'outcome': 'UNSAT',
 'propagations': '32057',
 'restarts': '1',
 'solver.msecs': 33,
 'task.msecs': 101}
