proyfinal/src/viki/013/experimentInOfficeAgust.take6.output/9a4b5618-5b48-429f-a5f8-1731c4263434.als.out
Reading from standard input... Use '--help' for help.
============================[ Problem Statistics ]=============================
|                                                                             |
|  Number of variables:         69608                                         |
|  Number of clauses:          118081                                         |
|  Parse time:                   0.02 s                                       |
|                                                                             |
============================[ Search Statistics ]==============================
| Conflicts |          ORIGINAL         |          LEARNT          | Progress |
|           |    Vars  Clauses Literals |    Limit  Clauses Lit/Cl |          |
===============================================================================
===============================================================================
restarts              : 1
conflicts             : 12             (360 /sec)
decisions             : 6373           (0.00 % random) (191031 /sec)
propagations          : 32057          (960912 /sec)
conflict literals     : 20             (0.00 % deleted)
Memory used           : 15.56 MB
CPU time              : 0.033361 s

UNSATISFIABLE
